&CONTROL
calculation="nscf",
forc_conv_thr=0.001,
max_seconds=172800.0,
pseudo_dir="/home/sliu135/pseudo/",
outdir="/home/sliu135/scratch/newprefix",
tprnfor=".TRUE.",
tstress=".TRUE.",
prefix="newprefix",

/

&SYSTEM
ntyp=7,
nat=36,
ibrav=4,
A=8.876377169659998,
B=8.87637716966,
C=8.87637716966,
cosAB=0.527876175492761,
cosAC=0.527876175492761,
cosBC=0.527876175492761,
nspin=2,
degauss=0.02,
ecutwfc=40.0,
ecutrho=360.0,
input_dft="rvv10",
lda_plus_u=".TRUE.",
nbnd=256,
occupations="smearing",
smearing="gaussian",
U_projection_type="atomic",
hubbard_u(2)=1.0,
starting_magnetization(2)=0.5,
starting_magnetization(3)=0.5,

/

&ELECTRONS
startingpot="atomic",
startingwfc="atomic+random",
mixing_beta="0.2",
conv_thr=1e-08,
diagonalization="cg",
diago_thr_init=1e-06,
electron_maxstep=300,

/

&IONS
ion_dynamics="bfgs",

/

ATOMIC_SPECIES
Na,23.0,Na.upf
Ti,47.867,Ti.upf
P,30.973761998,P.upf
O,15.999,O.upf


K_POINTS automatic
2 2 2 0 0 0

ATOMIC_POSITIONS angstrom
Na 9.12381661738138 5.071780230160417 3.5373255311580016
Na 0.0 0.0 0.0
Ti 15.609171450081941 8.676882766242125 6.051713115913608
Ti 11.762278402062197 6.538457924239128 4.560263477560398
Ti 6.485354832700563 3.6051025360817066 2.5143875847556063
Ti 2.638461784680817 1.4666776940787103 1.0229379464023955
P 12.234660418681722 3.283975629010164 3.80057329718678
P 10.451161400911037 7.909540206196617 1.7686627655790008
P 6.012972816081037 6.85958483131067 3.274077765129223
P 7.796471833851722 2.2340202541242173 5.305988296737002
P 9.24753634124207 6.557714970354678 6.811403296287225
P 9.00009689352069 3.5858454899661547 0.2632477660287785
O 9.787264680379502 2.2676662170351856 0.4268278478916491
O 6.172073029761382 7.687519488194848 1.9805556395464277
O 7.09244116450404 2.8589206352817684 6.529846333309173
O 8.212929106661875 3.887765263076248 1.5567698916115742
O 6.7170034854287195 5.495190996352862 3.1104976832663525
O 7.637371620171378 3.1618385508611744 4.082130260164832
O 8.460368554383257 7.875894243285649 6.647823214424354
O 12.075560205001377 2.456040972125986 5.094095422769576
O 11.15519207025872 7.284639825039065 0.5448047290068309
O 10.034704128100884 6.255795197244587 5.517881170704429
O 11.53062974933404 4.648369463967973 3.9641533790496513
O 10.610261614591382 6.98172190945966 2.992520802151171
O 11.820558050213084 8.399540473223892 5.0478979513326525
O 13.373699969415183 6.673742036650378 3.516313817502924
O 12.727809140156591 6.006973546720345 6.138264397009983
O 9.312121850177578 2.0709091784555045 5.564078642141353
O 6.674514632271058 7.576278962703793 4.473712196464024
O 9.958012679436168 4.775017413369007 0.02101171365507853
O 6.427075184549677 1.7440199870969417 2.0267531109833508
O 4.873933265347578 3.469818423670456 3.5583372448130803
O 5.519824094606169 4.13658691360049 0.9363866653060215
O 8.935511384585181 8.07265128186533 1.5105724201746509
O 11.5731186024917 2.567281497617041 2.6009388658519805
O 8.289620555326591 5.368543046951826 7.053639348660925


