&DOS
	prefix		= "newprefix",
    outdir      = "/home/sliu135/scratch/newprefix",
    fildos  =  'newprefix_dos.dat',
    emax        = 30,
    emin        = -30,
    deltae      = 0.05,
    degauss     =  1.00000e-02
/

