&PROJWFC
	prefix		= "newprefix",
    outdir      = "/home/sliu135/scratch/newprefix",
    filpdos     =  'newprefix_pdos',
    degauss     = 1.00000e-02,
    emax        = 30,
    emin        = -30,
    deltae      = 0.01
/

